\ENCODING=ISO-8859-1
\Problem name: Configuration1

Maximize
 obj: 8 x(1) + 12 x(2)
Subject To
 main_constraints(1):  10 x(1) + 20 x(2) <= 140
 main_constraints(2):  6 x(1) + 8 x(2) <= 72
 other_constraints(1): x(1) >= 0
 other_constraints(2): x(2) >= 0
End
